1642
68 5 16 30 28 73 89 95 15 25 56 26 82 80 67 94 92 23 87 72 96 69 7 55 47 88 52 77 41 12 24 61 50 11 1 83 42 48 57 39 66 97 18 36 34 51 93 17 44 84 3 85 20 14 70 76 74 64 91 13 78 54 58 32 62 35 21 40 19 49 81 71 37 43 8 86 63 22 99 33 31 45 75 46 6 4 79 38 2 27 10 53 60 90 98 65 59 29 9 
